Reading model...
...model read.
creating competitive generators file...
...competitive generators recorded.
Loading data...
.. real-time data read.
Compiling instance...
...instance created.
Creating Offer Mitigation (model will solve as dispatch if TRUE)...
...storage offer mitigation file created
Converting model to MPEC...
...converted
NOTE: initial MIP solve with only storage competitive to get feasible solution
Solving...

Welcome to IBM(R) ILOG(R) CPLEX(R) Interactive Optimizer 12.10.0.0
  with Simplex, Mixed Integer & Barrier Optimizers
5725-A06 5725-A29 5724-Y48 5724-Y49 5724-Y54 5724-Y55 5655-Y21
Copyright IBM Corp. 1988, 2019.  All Rights Reserved.

Type 'help' for a list of available commands.
Type 'help' followed by a command name for more
information on commands.

CPLEX> Logfile 'cplex.log' closed.
Logfile 'C:\Users\wenmi\Desktop\competitiveMPEC\logs\tmp9qe4phc6.cplex.log' open.
CPLEX> New value for parallel optimization mode: -1
CPLEX> New value for mixed integer optimality gap tolerance: 0.05
CPLEX> New value for deterministic time limit in ticks: 100000
CPLEX> Problem 'C:\Users\wenmi\Desktop\competitiveMPEC\logs\tmpjoquuz66.pyomo.lp' read.
Read time = 0.31 sec. (27.41 ticks)
CPLEX> Problem name         : C:\Users\wenmi\Desktop\competitiveMPEC\logs\tmpjoquuz66.pyomo.lp
Objective sense      : Maximize
Variables            :  107779  [Nneg: 1,  Box: 44054,  Free: 8928,
                                 Binary: 54796]
Objective nonzeros   :   17618
Linear constraints   :  246995  [Less: 82866,  Greater: 118424,  Equal: 45705]
  Nonzeros           :  581069
  RHS nonzeros       :  134833

Variables            : Min LB: -5000.000        Max UB: 1000000.       
Objective nonzeros   : Min   : 0.008333333      Max   : 180.0000       
Linear constraints   :
  Nonzeros           : Min   : 0.008333333      Max   : 1000000.       
  RHS nonzeros       : Min   : 0.008333333      Max   : 1000000.       
CPLEX> Version identifier: 12.10.0.0 | 2019-11-26 | 843d4de2ae
CPXPARAM_Parallel                                -1
CPXPARAM_DetTimeLimit                            100000
CPXPARAM_MIP_Tolerances_MIPGap                   0.050000000000000003
Tried aggregator 3 times.
MIP Presolve eliminated 181067 rows and 40853 columns.
MIP Presolve added 6240 rows and 0 columns.
MIP Presolve modified 49370 coefficients.
Aggregator did 25836 substitutions.
Reduced MIP has 46332 rows, 39570 columns, and 128373 nonzeros.
Reduced MIP has 15552 binaries, 0 generals, 0 SOSs, and 0 indicators.
Presolve time = 0.33 sec. (327.53 ticks)
Probing fixed 746 vars, tightened 11603 bounds.
Probing time = 0.09 sec. (16.54 ticks)
Tried aggregator 2 times.
Detecting symmetries...
MIP Presolve eliminated 1682 rows and 1492 columns.
MIP Presolve modified 5572 coefficients.
Aggregator did 96 substitutions.
Reduced MIP has 44554 rows, 37982 columns, and 123229 nonzeros.
Reduced MIP has 14806 binaries, 0 generals, 0 SOSs, and 0 indicators.
Presolve time = 0.14 sec. (213.41 ticks)
Probing fixed 0 vars, tightened 775 bounds.
Probing time = 0.17 sec. (22.17 ticks)
Clique table members: 84229.
MIP emphasis: balance optimality and feasibility.
MIP search method: dynamic search.
Parallel mode: opportunistic, using up to 16 threads.
Root relaxation solution time = 0.67 sec. (1994.14 ticks)

        Nodes                                         Cuts/
   Node  Left     Objective  IInf  Best Integer    Best Bound    ItCnt     Gap

      0     0    -1371.4604   322                  -1371.4604    10591         
*     0+    0                        -1371.4604    -1371.4604             0.00%
      0     0        cutoff          -1371.4604    -1371.4604    10592    0.00%
Elapsed time = 2.25 sec. (3773.34 ticks, tree = 0.01 MB, solutions = 1)

Cover cuts applied:  1

Root node processing (before b&c):
  Real time             =    2.27 sec. (3776.94 ticks)
Parallel b&c, 16 threads:
  Real time             =    0.00 sec. (0.00 ticks)
  Sync time (average)   =    0.00 sec.
  Wait time (average)   =    0.00 sec.
                          ------------
Total (root+branch&cut) =    2.27 sec. (3776.94 ticks)

Solution pool: 1 solution saved.

MIP - Integer optimal solution:  Objective = -1.3714604390e+03
Solution time =    2.28 sec.  Iterations = 10592  Nodes = 0
Deterministic time = 3777.25 ticks  (1655.24 ticks/sec)

CPLEX> Incumbent solution written to file 'C:\Users\wenmi\Desktop\competitiveMPEC\logs\tmpcy_mz1o_.cplex.sol'.
CPLEX> NOTE: no warmstart specified for MIP iteration, default behavior is true
NOTE: resolving with all competitive generators using storage-only solution to warmstart
Solving...

Welcome to IBM(R) ILOG(R) CPLEX(R) Interactive Optimizer 12.10.0.0
  with Simplex, Mixed Integer & Barrier Optimizers
5725-A06 5725-A29 5724-Y48 5724-Y49 5724-Y54 5724-Y55 5655-Y21
Copyright IBM Corp. 1988, 2019.  All Rights Reserved.

Type 'help' for a list of available commands.
Type 'help' followed by a command name for more
information on commands.

CPLEX> Logfile 'cplex.log' closed.
Logfile 'C:\Users\wenmi\Desktop\competitiveMPEC\logs\tmp6weku1sz.cplex.log' open.
CPLEX> New value for parallel optimization mode: -1
CPLEX> New value for mixed integer optimality gap tolerance: 0.05
CPLEX> New value for deterministic time limit in ticks: 100000
CPLEX> Problem 'C:\Users\wenmi\Desktop\competitiveMPEC\logs\tmpw2fqq4pr.pyomo.lp' read.
Read time = 0.30 sec. (27.45 ticks)
CPLEX> MIP start file 'C:\Users\wenmi\Desktop\competitiveMPEC\logs\tmptvf_1wpm.cplex.mst' read.
CPLEX> Problem name         : C:\Users\wenmi\Desktop\competitiveMPEC\logs\tmpw2fqq4pr.pyomo.lp
Objective sense      : Maximize
Variables            :  109219  [Nneg: 1,  Box: 45494,  Free: 8928,
                                 Binary: 54796]
Objective nonzeros   :   19010
Linear constraints   :  246995  [Less: 82866,  Greater: 118424,  Equal: 45705]
  Nonzeros           :  581069
  RHS nonzeros       :  134833

Variables            : Min LB: -5000.000        Max UB: 1000000.       
Objective nonzeros   : Min   : 0.008333333      Max   : 180.0000       
Linear constraints   :
  Nonzeros           : Min   : 0.008333333      Max   : 1000000.       
  RHS nonzeros       : Min   : 0.008333333      Max   : 1000000.       
CPLEX> Version identifier: 12.10.0.0 | 2019-11-26 | 843d4de2ae
CPXPARAM_Parallel                                -1
CPXPARAM_DetTimeLimit                            100000
CPXPARAM_MIP_Tolerances_MIPGap                   0.050000000000000003
Warning:  No solution found from 1 MIP starts.
Retaining values of one MIP start for possible repair.
Tried aggregator 3 times.
MIP Presolve eliminated 181067 rows and 42293 columns.
MIP Presolve added 6240 rows and 0 columns.
MIP Presolve modified 49370 coefficients.
Aggregator did 25836 substitutions.
Reduced MIP has 46332 rows, 39570 columns, and 128373 nonzeros.
Reduced MIP has 15552 binaries, 0 generals, 0 SOSs, and 0 indicators.
Presolve time = 0.33 sec. (328.24 ticks)
Probing fixed 746 vars, tightened 11603 bounds.
Probing time = 0.09 sec. (16.54 ticks)
Tried aggregator 2 times.
Detecting symmetries...
MIP Presolve eliminated 1682 rows and 1492 columns.
MIP Presolve modified 5572 coefficients.
Aggregator did 96 substitutions.
Reduced MIP has 44554 rows, 37982 columns, and 123229 nonzeros.
Reduced MIP has 14806 binaries, 0 generals, 0 SOSs, and 0 indicators.
Presolve time = 0.13 sec. (213.42 ticks)
Probing fixed 0 vars, tightened 775 bounds.
Probing time = 0.17 sec. (22.17 ticks)
Clique table members: 84229.
MIP emphasis: balance optimality and feasibility.
MIP search method: dynamic search.
Parallel mode: opportunistic, using up to 16 threads.
Root relaxation solution time = 0.81 sec. (2226.69 ticks)

        Nodes                                         Cuts/
   Node  Left     Objective  IInf  Best Integer    Best Bound    ItCnt     Gap

      0     0    28454.1219   513                  28454.1219    12261         
      0     0    28434.4894   513               Flowcuts: 209    12491         
*     0+    0                        28269.4161    28434.4894             0.58%

Cover cuts applied:  1
Flow cuts applied:  257

Root node processing (before b&c):
  Real time             =    2.89 sec. (4230.68 ticks)
Parallel b&c, 16 threads:
  Real time             =    0.00 sec. (0.00 ticks)
  Sync time (average)   =    0.00 sec.
  Wait time (average)   =    0.00 sec.
                          ------------
Total (root+branch&cut) =    2.89 sec. (4230.68 ticks)

Solution pool: 1 solution saved.

MIP - Integer optimal, tolerance (0.05/1e-06):  Objective =  2.8269416087e+04
Current MIP best bound =  2.8434489362e+04 (gap = 165.073, 0.58%)
Solution time =    2.91 sec.  Iterations = 12583  Nodes = 0 (1)
Deterministic time = 4230.99 ticks  (1455.95 ticks/sec)

CPLEX> Incumbent solution written to file 'C:\Users\wenmi\Desktop\competitiveMPEC\logs\tmplg0ru9t8.cplex.sol'.
CPLEX> Exporting results... 
